100
120
100
99
98
98
98
98
98
97
96
94
93
92
90
89
89
88
87
84
83
82
81
81
80
80
78
78
78
78
75
75
75
75
74
71
71
71
70
70
69
69
69
68
68
66
65
64
64
64
64
63
61
58
57
56
56
55
55
55
54
54
54
54
51
50
50
49
48
46
45
45
44
44
43
41
41
40
40
40
39
37
37
36
36
35
35
35
35
33
32
31
31
30
29
29
27
27
25
24
21
20
